(set-logic QF_FPBV)
(set-info :source |Random FP created by PyMPF|)
(set-info :category random)
(set-info :status unsat)
;; fp.from.ubv(BitVec 64)
(declare-const x (_ BitVec 64))
(assert (bvule x #b1101101001010001100110011010010000010110110111011010011100100111))
;; x should be 15731523903419164455
(declare-const r Float16)
(assert (= r ((_ to_fp_unsigned 5 11) RNE x)))
(assert (not (fp.leq r ((_ to_fp 5 11) #x7C00))))
(check-sat)
(exit)
